55
2 2 76 
3 14 28 93 
2 61 9 
2 50 95 
2 10 11 
3 20 19 44 
3 25 3 1 
2 73 26 
2 104 78 
2 72 80 
3 16 69 13 
2 34 116 
2 56 58 
2 79 5 
3 14 28 93 
3 113 102 35 
3 8 57 48 
2 114 100 
3 47 98 21 
2 51 63 
3 46 96 109 
2 71 85 
2 33 75 
2 119 97 
2 49 55 
2 34 116 
2 66 91 
3 83 74 39 
2 99 111 
3 65 86 110 
2 45 84 
2 82 87 
1 43 
2 37 106 
2 105 7 
2 89 36 
2 12 67 
2 88 64 
2 112 107 
2 108 68 
2 59 115 
1 92 
3 31 30 42 
2 70 22 
2 77 32 
2 23 6 
3 90 29 52 
3 60 27 41 
1 103 
1 117 
3 4 40 18 
1 62 
2 101 38 
2 10 40 
3 118 17 24 
